VRPTWMS/instances/mip/freight/5/N5-C_DV10-C_SV50_F12_16_No_1.lp
\ N5-C_DV10-C_SV50_F12_16

Minimize
  17.09 x_d0_c1 + 17.09 z_d0_c1 + 20.1 x_d0_c2 + 20.1 z_d0_c2 + 32.53 x_d0_c3 + 32.53 z_d0_c3 + 3.61 x_d0_c4 + 3.61 z_d0_c4 + 28.07 x_d0_c5 + 28.07 z_d0_c5 + 22.8 x_c1_c2 + 22.8 x_c2_c1 + 22.8 z_c1_c2 + 22.8 z_c2_c1 + 18.38 x_c1_c3 + 18.38 x_c3_c1 + 18.38 z_c1_c3 + 18.38 z_c3_c1 + 18.25 x_c1_c4 + 18.25 x_c4_c1 + 18.25 z_c1_c4 + 18.25 z_c4_c1 + 12.65 x_c1_c5 + 12.65 x_c5_c1 + 12.65 z_c1_c5 + 12.65 z_c5_c1 + 25.18 x_c2_c3 + 25.18 x_c3_c2 + 25.18 z_c2_c3 + 25.18 z_c3_c2 + 17.0 x_c2_c4 + 17.0 x_c4_c2 + 17.0 z_c2_c4 + 17.0 z_c4_c2 + 34.99 x_c2_c5 + 34.99 x_c5_c2 + 34.99 z_c2_c5 + 34.99 z_c5_c2 + 32.02 x_c3_c4 + 32.02 x_c4_c3 + 32.02 z_c3_c4 + 32.02 z_c4_c3 + 21.59 x_c3_c5 + 21.59 x_c5_c3 + 21.59 z_c3_c5 + 21.59 z_c5_c3 + 30.02 x_c4_c5 + 30.02 x_c5_c4 + 30.02 z_c4_c5 + 30.02 z_c5_c4 + 17.09 x_c1_dN + 17.09 z_c1_dN + 20.1 x_c2_dN + 20.1 z_c2_dN + 32.53 x_c3_dN + 32.53 z_c3_dN + 3.61 x_c4_dN + 3.61 z_c4_dN + 28.07 x_c5_dN + 28.07 z_c5_dN + 1000.0 x_d0_c1 + 1000.0 z_d0_c1 + 1000.0 x_d0_c2 + 1000.0 z_d0_c2 + 1000.0 x_d0_c3 + 1000.0 z_d0_c3 + 1000.0 x_d0_c4 + 1000.0 z_d0_c4 + 1000.0 x_d0_c5 + 1000.0 z_d0_c5
Subject To
  Successor_DV_c1: x_c1_c2 + x_c1_c3 + x_c1_c4 + x_c1_c5 + x_c1_dN = 1
  Successor_DV_c2: x_c2_c1 + x_c2_c3 + x_c2_c4 + x_c2_c5 + x_c2_dN = 1
  Successor_DV_c3: x_c3_c1 + x_c3_c2 + x_c3_c4 + x_c3_c5 + x_c3_dN = 1
  Successor_DV_c4: x_c4_c1 + x_c4_c2 + x_c4_c3 + x_c4_c5 + x_c4_dN = 1
  Successor_DV_c5: x_c5_c1 + x_c5_c2 + x_c5_c3 + x_c5_c4 + x_c5_dN = 1
  Successor_SV_c1: z_c1_c2 + z_c1_c3 + z_c1_c4 + z_c1_c5 + z_c1_dN <= 1
  Successor_SV_c2: z_c2_c1 + z_c2_c3 + z_c2_c4 + z_c2_c5 + z_c2_dN <= 1
  Successor_SV_c3: z_c3_c1 + z_c3_c2 + z_c3_c4 + z_c3_c5 + z_c3_dN <= 1
  Successor_SV_c4: z_c4_c1 + z_c4_c2 + z_c4_c3 + z_c4_c5 + z_c4_dN <= 1
  Successor_SV_c5: z_c5_c1 + z_c5_c2 + z_c5_c3 + z_c5_c4 + z_c5_dN <= 1
  Flow_DV_c1: x_d0_c1 + x_c2_c1 + x_c3_c1 + x_c4_c1 + x_c5_c1 - x_c1_dN - x_c1_c2 - x_c1_c3 - x_c1_c4 - x_c1_c5 = 0
  Flow_DV_c2: x_d0_c2 + x_c1_c2 + x_c3_c2 + x_c4_c2 + x_c5_c2 - x_c2_dN - x_c2_c1 - x_c2_c3 - x_c2_c4 - x_c2_c5 = 0
  Flow_DV_c3: x_d0_c3 + x_c1_c3 + x_c2_c3 + x_c4_c3 + x_c5_c3 - x_c3_dN - x_c3_c1 - x_c3_c2 - x_c3_c4 - x_c3_c5 = 0
  Flow_DV_c4: x_d0_c4 + x_c1_c4 + x_c2_c4 + x_c3_c4 + x_c5_c4 - x_c4_dN - x_c4_c1 - x_c4_c2 - x_c4_c3 - x_c4_c5 = 0
  Flow_DV_c5: x_d0_c5 + x_c1_c5 + x_c2_c5 + x_c3_c5 + x_c4_c5 - x_c5_dN - x_c5_c1 - x_c5_c2 - x_c5_c3 - x_c5_c4 = 0
  Flow_SV_c1: z_d0_c1 + z_c2_c1 + z_c3_c1 + z_c4_c1 + z_c5_c1 - z_c1_dN - z_c1_c2 - z_c1_c3 - z_c1_c4 - z_c1_c5 = 0
  Flow_SV_c2: z_d0_c2 + z_c1_c2 + z_c3_c2 + z_c4_c2 + z_c5_c2 - z_c2_dN - z_c2_c1 - z_c2_c3 - z_c2_c4 - z_c2_c5 = 0
  Flow_SV_c3: z_d0_c3 + z_c1_c3 + z_c2_c3 + z_c4_c3 + z_c5_c3 - z_c3_dN - z_c3_c1 - z_c3_c2 - z_c3_c4 - z_c3_c5 = 0
  Flow_SV_c4: z_d0_c4 + z_c1_c4 + z_c2_c4 + z_c3_c4 + z_c5_c4 - z_c4_dN - z_c4_c1 - z_c4_c2 - z_c4_c3 - z_c4_c5 = 0
  Flow_SV_c5: z_d0_c5 + z_c1_c5 + z_c2_c5 + z_c3_c5 + z_c4_c5 - z_c5_dN - z_c5_c1 - z_c5_c2 - z_c5_c3 - z_c5_c4 = 0
  travelDV_d0_c1: tauD_d0 - tauD_c1 + 104.2725 x_d0_c1 <= 100.0
  travelDV_d0_c2: tauD_d0 - tauD_c2 + 105.025 x_d0_c2 <= 100.0
  travelDV_d0_c3: tauD_d0 - tauD_c3 + 108.1325 x_d0_c3 <= 100.0
  travelDV_d0_c4: tauD_d0 - tauD_c4 + 100.9025 x_d0_c4 <= 100.0
  travelDV_d0_c5: tauD_d0 - tauD_c5 + 107.0175 x_d0_c5 <= 100.0
  travelDV_c1_c2: tauD_c1 - tauD_c2 + 113.7 x_c1_c2 + 8.0 p_1 <= 100.0
  travelDV_c1_c3: tauD_c1 - tauD_c3 + 112.595 x_c1_c3 + 8.0 p_1 <= 100.0
  travelDV_c1_c4: tauD_c1 - tauD_c4 + 112.5625 x_c1_c4 + 8.0 p_1 <= 100.0
  travelDV_c1_c5: tauD_c1 - tauD_c5 + 111.1625 x_c1_c5 + 8.0 p_1 <= 100.0
  travelDV_c2_c1: tauD_c2 - tauD_c1 + 110.7 x_c2_c1 + 8.0 p_2 <= 100.0
  travelDV_c2_c3: tauD_c2 - tauD_c3 + 111.295 x_c2_c3 + 8.0 p_2 <= 100.0
  travelDV_c2_c4: tauD_c2 - tauD_c4 + 109.25 x_c2_c4 + 8.0 p_2 <= 100.0
  travelDV_c2_c5: tauD_c2 - tauD_c5 + 113.7475 x_c2_c5 + 8.0 p_2 <= 100.0
  travelDV_c3_c1: tauD_c3 - tauD_c1 + 112.595 x_c3_c1 + 8.0 p_3 <= 100.0
  travelDV_c3_c2: tauD_c3 - tauD_c2 + 114.295 x_c3_c2 + 8.0 p_3 <= 100.0
  travelDV_c3_c4: tauD_c3 - tauD_c4 + 116.005 x_c3_c4 + 8.0 p_3 <= 100.0
  travelDV_c3_c5: tauD_c3 - tauD_c5 + 113.3975 x_c3_c5 + 8.0 p_3 <= 100.0
  travelDV_c4_c1: tauD_c4 - tauD_c1 + 110.5625 x_c4_c1 + 8.0 p_4 <= 100.0
  travelDV_c4_c2: tauD_c4 - tauD_c2 + 110.25 x_c4_c2 + 8.0 p_4 <= 100.0
  travelDV_c4_c3: tauD_c4 - tauD_c3 + 114.005 x_c4_c3 + 8.0 p_4 <= 100.0
  travelDV_c4_c5: tauD_c4 - tauD_c5 + 113.505 x_c4_c5 + 8.0 p_4 <= 100.0
  travelDV_c5_c1: tauD_c5 - tauD_c1 + 107.1625 x_c5_c1 + 8.0 p_5 <= 100.0
  travelDV_c5_c2: tauD_c5 - tauD_c2 + 112.7475 x_c5_c2 + 8.0 p_5 <= 100.0
  travelDV_c5_c3: tauD_c5 - tauD_c3 + 109.3975 x_c5_c3 + 8.0 p_5 <= 100.0
  travelDV_c5_c4: tauD_c5 - tauD_c4 + 111.505 x_c5_c4 + 8.0 p_5 <= 100.0
  TravelSV_d0_c1: tauS_d0 - tauS_c1 + 100.0 z_d0_c1 <= 95.7275
  TravelSV_d0_c2: tauS_d0 - tauS_c2 + 100.0 z_d0_c2 <= 94.975
  TravelSV_d0_c3: tauS_d0 - tauS_c3 + 100.0 z_d0_c3 <= 91.8675
  TravelSV_d0_c4: tauS_d0 - tauS_c4 + 100.0 z_d0_c4 <= 99.0975
  TravelSV_d0_c5: tauS_d0 - tauS_c5 + 100.0 z_d0_c5 <= 92.9825
  TravelSV_d0_dN: tauS_d0 - tauS_dN + 100.0 z_d0_dN <= 100.0
  TravelSV_c1_c2: tauS_c1 - tauS_c2 + 100.0 z_c1_c2 <= 86.3
  TravelSV_c1_c3: tauS_c1 - tauS_c3 + 100.0 z_c1_c3 <= 87.405
  TravelSV_c1_c4: tauS_c1 - tauS_c4 + 100.0 z_c1_c4 <= 87.4375
  TravelSV_c1_c5: tauS_c1 - tauS_c5 + 100.0 z_c1_c5 <= 88.8375
  TravelSV_c1_dN: tauS_c1 - tauS_dN + 100.0 z_c1_dN <= 87.7275
  TravelSV_c2_c1: tauS_c2 - tauS_c1 + 100.0 z_c2_c1 <= 86.3
  TravelSV_c2_c3: tauS_c2 - tauS_c3 + 100.0 z_c2_c3 <= 85.705
  TravelSV_c2_c4: tauS_c2 - tauS_c4 + 100.0 z_c2_c4 <= 87.75
  TravelSV_c2_c5: tauS_c2 - tauS_c5 + 100.0 z_c2_c5 <= 83.2525
  TravelSV_c2_dN: tauS_c2 - tauS_dN + 100.0 z_c2_dN <= 86.975
  TravelSV_c3_c1: tauS_c3 - tauS_c1 + 100.0 z_c3_c1 <= 87.405
  TravelSV_c3_c2: tauS_c3 - tauS_c2 + 100.0 z_c3_c2 <= 85.705
  TravelSV_c3_c4: tauS_c3 - tauS_c4 + 100.0 z_c3_c4 <= 83.995
  TravelSV_c3_c5: tauS_c3 - tauS_c5 + 100.0 z_c3_c5 <= 86.6025
  TravelSV_c3_dN: tauS_c3 - tauS_dN + 100.0 z_c3_dN <= 83.8675
  TravelSV_c4_c1: tauS_c4 - tauS_c1 + 100.0 z_c4_c1 <= 87.4375
  TravelSV_c4_c2: tauS_c4 - tauS_c2 + 100.0 z_c4_c2 <= 87.75
  TravelSV_c4_c3: tauS_c4 - tauS_c3 + 100.0 z_c4_c3 <= 83.995
  TravelSV_c4_c5: tauS_c4 - tauS_c5 + 100.0 z_c4_c5 <= 84.495
  TravelSV_c4_dN: tauS_c4 - tauS_dN + 100.0 z_c4_dN <= 91.0975
  TravelSV_c5_c1: tauS_c5 - tauS_c1 + 100.0 z_c5_c1 <= 88.8375
  TravelSV_c5_c2: tauS_c5 - tauS_c2 + 100.0 z_c5_c2 <= 83.2525
  TravelSV_c5_c3: tauS_c5 - tauS_c3 + 100.0 z_c5_c3 <= 86.6025
  TravelSV_c5_c4: tauS_c5 - tauS_c4 + 100.0 z_c5_c4 <= 84.495
  TravelSV_c5_dN: tauS_c5 - tauS_dN + 100.0 z_c5_dN <= 84.9825
  time_window_c1_e: tauD_c1 + 8.0 o_1 >= 10.0
  time_window_c1_l: tauD_c1 + 8.0 o_1 <= 25.0
  time_window_c2_e: tauD_c2 + 8.0 o_2 >= 10.0
  time_window_c2_l: tauD_c2 + 8.0 o_2 <= 25.0
  time_window_c3_e: tauD_c3 + 8.0 o_3 >= 30.0
  time_window_c3_l: tauD_c3 + 8.0 o_3 <= 45.0
  time_window_c4_e: tauD_c4 + 8.0 o_4 >= 0.0
  time_window_c4_l: tauD_c4 + 8.0 o_4 <= 100.0
  time_window_c5_e: tauD_c5 + 8.0 o_5 >= 65.0
  time_window_c5_l: tauD_c5 + 8.0 o_5 <= 80.0
  SyncA_c1_c2_c2: 8.0 o_1 + 100.0 x_c1_c2 - tauD_c2 - 5.7 z_c1_c2 + [ tauS_c2 * z_c1_c2 ] <= 94.3
  SyncA_c1_c2_c3: 8.0 o_1 + 100.0 x_c1_c2 - tauD_c2 - 4.595 z_c1_c3 + [ tauS_c3 * z_c1_c3 ] <= 94.3
  SyncA_c1_c2_c4: 8.0 o_1 + 100.0 x_c1_c2 - tauD_c2 - 4.5625 z_c1_c4 + [ tauS_c4 * z_c1_c4 ] <= 94.3
  SyncA_c1_c2_c5: 8.0 o_1 + 100.0 x_c1_c2 - tauD_c2 - 3.1625 z_c1_c5 + [ tauS_c5 * z_c1_c5 ] <= 94.3
  SyncA_c1_c2_dN: 8.0 o_1 + 100.0 x_c1_c2 - tauD_c2 - 4.2725 z_c1_dN + [ tauS_dN * z_c1_dN ] <= 94.3
  SyncA_c1_c3_c2: 8.0 o_1 + 100.0 x_c1_c3 - tauD_c3 - 5.7 z_c1_c2 + [ tauS_c2 * z_c1_c2 ] <= 95.405
  SyncA_c1_c3_c3: 8.0 o_1 + 100.0 x_c1_c3 - tauD_c3 - 4.595 z_c1_c3 + [ tauS_c3 * z_c1_c3 ] <= 95.405
  SyncA_c1_c3_c4: 8.0 o_1 + 100.0 x_c1_c3 - tauD_c3 - 4.5625 z_c1_c4 + [ tauS_c4 * z_c1_c4 ] <= 95.405
  SyncA_c1_c3_c5: 8.0 o_1 + 100.0 x_c1_c3 - tauD_c3 - 3.1625 z_c1_c5 + [ tauS_c5 * z_c1_c5 ] <= 95.405
  SyncA_c1_c3_dN: 8.0 o_1 + 100.0 x_c1_c3 - tauD_c3 - 4.2725 z_c1_dN + [ tauS_dN * z_c1_dN ] <= 95.405
  SyncA_c1_c4_c2: 8.0 o_1 + 100.0 x_c1_c4 - tauD_c4 - 5.7 z_c1_c2 + [ tauS_c2 * z_c1_c2 ] <= 95.4375
  SyncA_c1_c4_c3: 8.0 o_1 + 100.0 x_c1_c4 - tauD_c4 - 4.595 z_c1_c3 + [ tauS_c3 * z_c1_c3 ] <= 95.4375
  SyncA_c1_c4_c4: 8.0 o_1 + 100.0 x_c1_c4 - tauD_c4 - 4.5625 z_c1_c4 + [ tauS_c4 * z_c1_c4 ] <= 95.4375
  SyncA_c1_c4_c5: 8.0 o_1 + 100.0 x_c1_c4 - tauD_c4 - 3.1625 z_c1_c5 + [ tauS_c5 * z_c1_c5 ] <= 95.4375
  SyncA_c1_c4_dN: 8.0 o_1 + 100.0 x_c1_c4 - tauD_c4 - 4.2725 z_c1_dN + [ tauS_dN * z_c1_dN ] <= 95.4375
  SyncA_c1_c5_c2: 8.0 o_1 + 100.0 x_c1_c5 - tauD_c5 - 5.7 z_c1_c2 + [ tauS_c2 * z_c1_c2 ] <= 96.8375
  SyncA_c1_c5_c3: 8.0 o_1 + 100.0 x_c1_c5 - tauD_c5 - 4.595 z_c1_c3 + [ tauS_c3 * z_c1_c3 ] <= 96.8375
  SyncA_c1_c5_c4: 8.0 o_1 + 100.0 x_c1_c5 - tauD_c5 - 4.5625 z_c1_c4 + [ tauS_c4 * z_c1_c4 ] <= 96.8375
  SyncA_c1_c5_c5: 8.0 o_1 + 100.0 x_c1_c5 - tauD_c5 - 3.1625 z_c1_c5 + [ tauS_c5 * z_c1_c5 ] <= 96.8375
  SyncA_c1_c5_dN: 8.0 o_1 + 100.0 x_c1_c5 - tauD_c5 - 4.2725 z_c1_dN + [ tauS_dN * z_c1_dN ] <= 96.8375
  SyncA_c1_dN_c2: 8.0 o_1 + 100.0 x_c1_dN - tauD_dN - 5.7 z_c1_c2 + [ tauS_c2 * z_c1_c2 ] <= 95.7275
  SyncA_c1_dN_c3: 8.0 o_1 + 100.0 x_c1_dN - tauD_dN - 4.595 z_c1_c3 + [ tauS_c3 * z_c1_c3 ] <= 95.7275
  SyncA_c1_dN_c4: 8.0 o_1 + 100.0 x_c1_dN - tauD_dN - 4.5625 z_c1_c4 + [ tauS_c4 * z_c1_c4 ] <= 95.7275
  SyncA_c1_dN_c5: 8.0 o_1 + 100.0 x_c1_dN - tauD_dN - 3.1625 z_c1_c5 + [ tauS_c5 * z_c1_c5 ] <= 95.7275
  SyncA_c1_dN_dN: 8.0 o_1 + 100.0 x_c1_dN - tauD_dN - 4.2725 z_c1_dN + [ tauS_dN * z_c1_dN ] <= 95.7275
  SyncA_c2_c1_c1: 5.0 o_2 + 100.0 x_c2_c1 - tauD_c1 - 5.7 z_c2_c1 + [ tauS_c1 * z_c2_c1 ] <= 94.3
  SyncA_c2_c1_c3: 5.0 o_2 + 100.0 x_c2_c1 - tauD_c1 - 6.295 z_c2_c3 + [ tauS_c3 * z_c2_c3 ] <= 94.3
  SyncA_c2_c1_c4: 5.0 o_2 + 100.0 x_c2_c1 - tauD_c1 - 4.25 z_c2_c4 + [ tauS_c4 * z_c2_c4 ] <= 94.3
  SyncA_c2_c1_c5: 5.0 o_2 + 100.0 x_c2_c1 - tauD_c1 - 8.7475 z_c2_c5 + [ tauS_c5 * z_c2_c5 ] <= 94.3
  SyncA_c2_c1_dN: 5.0 o_2 + 100.0 x_c2_c1 - tauD_c1 - 5.025 z_c2_dN + [ tauS_dN * z_c2_dN ] <= 94.3
  SyncA_c2_c3_c1: 5.0 o_2 + 100.0 x_c2_c3 - tauD_c3 - 5.7 z_c2_c1 + [ tauS_c1 * z_c2_c1 ] <= 93.705
  SyncA_c2_c3_c3: 5.0 o_2 + 100.0 x_c2_c3 - tauD_c3 - 6.295 z_c2_c3 + [ tauS_c3 * z_c2_c3 ] <= 93.705
  SyncA_c2_c3_c4: 5.0 o_2 + 100.0 x_c2_c3 - tauD_c3 - 4.25 z_c2_c4 + [ tauS_c4 * z_c2_c4 ] <= 93.705
  SyncA_c2_c3_c5: 5.0 o_2 + 100.0 x_c2_c3 - tauD_c3 - 8.7475 z_c2_c5 + [ tauS_c5 * z_c2_c5 ] <= 93.705
  SyncA_c2_c3_dN: 5.0 o_2 + 100.0 x_c2_c3 - tauD_c3 - 5.025 z_c2_dN + [ tauS_dN * z_c2_dN ] <= 93.705
  SyncA_c2_c4_c1: 5.0 o_2 + 100.0 x_c2_c4 - tauD_c4 - 5.7 z_c2_c1 + [ tauS_c1 * z_c2_c1 ] <= 95.75
  SyncA_c2_c4_c3: 5.0 o_2 + 100.0 x_c2_c4 - tauD_c4 - 6.295 z_c2_c3 + [ tauS_c3 * z_c2_c3 ] <= 95.75
  SyncA_c2_c4_c4: 5.0 o_2 + 100.0 x_c2_c4 - tauD_c4 - 4.25 z_c2_c4 + [ tauS_c4 * z_c2_c4 ] <= 95.75
  SyncA_c2_c4_c5: 5.0 o_2 + 100.0 x_c2_c4 - tauD_c4 - 8.7475 z_c2_c5 + [ tauS_c5 * z_c2_c5 ] <= 95.75
  SyncA_c2_c4_dN: 5.0 o_2 + 100.0 x_c2_c4 - tauD_c4 - 5.025 z_c2_dN + [ tauS_dN * z_c2_dN ] <= 95.75
  SyncA_c2_c5_c1: 5.0 o_2 + 100.0 x_c2_c5 - tauD_c5 - 5.7 z_c2_c1 + [ tauS_c1 * z_c2_c1 ] <= 91.2525
  SyncA_c2_c5_c3: 5.0 o_2 + 100.0 x_c2_c5 - tauD_c5 - 6.295 z_c2_c3 + [ tauS_c3 * z_c2_c3 ] <= 91.2525
  SyncA_c2_c5_c4: 5.0 o_2 + 100.0 x_c2_c5 - tauD_c5 - 4.25 z_c2_c4 + [ tauS_c4 * z_c2_c4 ] <= 91.2525
  SyncA_c2_c5_c5: 5.0 o_2 + 100.0 x_c2_c5 - tauD_c5 - 8.7475 z_c2_c5 + [ tauS_c5 * z_c2_c5 ] <= 91.2525
  SyncA_c2_c5_dN: 5.0 o_2 + 100.0 x_c2_c5 - tauD_c5 - 5.025 z_c2_dN + [ tauS_dN * z_c2_dN ] <= 91.2525
  SyncA_c2_dN_c1: 5.0 o_2 + 100.0 x_c2_dN - tauD_dN - 5.7 z_c2_c1 + [ tauS_c1 * z_c2_c1 ] <= 94.975
  SyncA_c2_dN_c3: 5.0 o_2 + 100.0 x_c2_dN - tauD_dN - 6.295 z_c2_c3 + [ tauS_c3 * z_c2_c3 ] <= 94.975
  SyncA_c2_dN_c4: 5.0 o_2 + 100.0 x_c2_dN - tauD_dN - 4.25 z_c2_c4 + [ tauS_c4 * z_c2_c4 ] <= 94.975
  SyncA_c2_dN_c5: 5.0 o_2 + 100.0 x_c2_dN - tauD_dN - 8.7475 z_c2_c5 + [ tauS_c5 * z_c2_c5 ] <= 94.975
  SyncA_c2_dN_dN: 5.0 o_2 + 100.0 x_c2_dN - tauD_dN - 5.025 z_c2_dN + [ tauS_dN * z_c2_dN ] <= 94.975
  SyncA_c3_c1_c1: 8.0 o_3 + 100.0 x_c3_c1 - tauD_c1 - 4.595 z_c3_c1 + [ tauS_c1 * z_c3_c1 ] <= 95.405
  SyncA_c3_c1_c2: 8.0 o_3 + 100.0 x_c3_c1 - tauD_c1 - 6.295 z_c3_c2 + [ tauS_c2 * z_c3_c2 ] <= 95.405
  SyncA_c3_c1_c4: 8.0 o_3 + 100.0 x_c3_c1 - tauD_c1 - 8.005 z_c3_c4 + [ tauS_c4 * z_c3_c4 ] <= 95.405
  SyncA_c3_c1_c5: 8.0 o_3 + 100.0 x_c3_c1 - tauD_c1 - 5.3975 z_c3_c5 + [ tauS_c5 * z_c3_c5 ] <= 95.405
  SyncA_c3_c1_dN: 8.0 o_3 + 100.0 x_c3_c1 - tauD_c1 - 8.1325 z_c3_dN + [ tauS_dN * z_c3_dN ] <= 95.405
  SyncA_c3_c2_c1: 8.0 o_3 + 100.0 x_c3_c2 - tauD_c2 - 4.595 z_c3_c1 + [ tauS_c1 * z_c3_c1 ] <= 93.705
  SyncA_c3_c2_c2: 8.0 o_3 + 100.0 x_c3_c2 - tauD_c2 - 6.295 z_c3_c2 + [ tauS_c2 * z_c3_c2 ] <= 93.705
  SyncA_c3_c2_c4: 8.0 o_3 + 100.0 x_c3_c2 - tauD_c2 - 8.005 z_c3_c4 + [ tauS_c4 * z_c3_c4 ] <= 93.705
  SyncA_c3_c2_c5: 8.0 o_3 + 100.0 x_c3_c2 - tauD_c2 - 5.3975 z_c3_c5 + [ tauS_c5 * z_c3_c5 ] <= 93.705
  SyncA_c3_c2_dN: 8.0 o_3 + 100.0 x_c3_c2 - tauD_c2 - 8.1325 z_c3_dN + [ tauS_dN * z_c3_dN ] <= 93.705
  SyncA_c3_c4_c1: 8.0 o_3 + 100.0 x_c3_c4 - tauD_c4 - 4.595 z_c3_c1 + [ tauS_c1 * z_c3_c1 ] <= 91.995
  SyncA_c3_c4_c2: 8.0 o_3 + 100.0 x_c3_c4 - tauD_c4 - 6.295 z_c3_c2 + [ tauS_c2 * z_c3_c2 ] <= 91.995
  SyncA_c3_c4_c4: 8.0 o_3 + 100.0 x_c3_c4 - tauD_c4 - 8.005 z_c3_c4 + [ tauS_c4 * z_c3_c4 ] <= 91.995
  SyncA_c3_c4_c5: 8.0 o_3 + 100.0 x_c3_c4 - tauD_c4 - 5.3975 z_c3_c5 + [ tauS_c5 * z_c3_c5 ] <= 91.995
  SyncA_c3_c4_dN: 8.0 o_3 + 100.0 x_c3_c4 - tauD_c4 - 8.1325 z_c3_dN + [ tauS_dN * z_c3_dN ] <= 91.995
  SyncA_c3_c5_c1: 8.0 o_3 + 100.0 x_c3_c5 - tauD_c5 - 4.595 z_c3_c1 + [ tauS_c1 * z_c3_c1 ] <= 94.6025
  SyncA_c3_c5_c2: 8.0 o_3 + 100.0 x_c3_c5 - tauD_c5 - 6.295 z_c3_c2 + [ tauS_c2 * z_c3_c2 ] <= 94.6025
  SyncA_c3_c5_c4: 8.0 o_3 + 100.0 x_c3_c5 - tauD_c5 - 8.005 z_c3_c4 + [ tauS_c4 * z_c3_c4 ] <= 94.6025
  SyncA_c3_c5_c5: 8.0 o_3 + 100.0 x_c3_c5 - tauD_c5 - 5.3975 z_c3_c5 + [ tauS_c5 * z_c3_c5 ] <= 94.6025
  SyncA_c3_c5_dN: 8.0 o_3 + 100.0 x_c3_c5 - tauD_c5 - 8.1325 z_c3_dN + [ tauS_dN * z_c3_dN ] <= 94.6025
  SyncA_c3_dN_c1: 8.0 o_3 + 100.0 x_c3_dN - tauD_dN - 4.595 z_c3_c1 + [ tauS_c1 * z_c3_c1 ] <= 91.8675
  SyncA_c3_dN_c2: 8.0 o_3 + 100.0 x_c3_dN - tauD_dN - 6.295 z_c3_c2 + [ tauS_c2 * z_c3_c2 ] <= 91.8675
  SyncA_c3_dN_c4: 8.0 o_3 + 100.0 x_c3_dN - tauD_dN - 8.005 z_c3_c4 + [ tauS_c4 * z_c3_c4 ] <= 91.8675
  SyncA_c3_dN_c5: 8.0 o_3 + 100.0 x_c3_dN - tauD_dN - 5.3975 z_c3_c5 + [ tauS_c5 * z_c3_c5 ] <= 91.8675
  SyncA_c3_dN_dN: 8.0 o_3 + 100.0 x_c3_dN - tauD_dN - 8.1325 z_c3_dN + [ tauS_dN * z_c3_dN ] <= 91.8675
  SyncA_c4_c1_c1: 6.0 o_4 + 100.0 x_c4_c1 - tauD_c1 - 4.5625 z_c4_c1 + [ tauS_c1 * z_c4_c1 ] <= 95.4375
  SyncA_c4_c1_c2: 6.0 o_4 + 100.0 x_c4_c1 - tauD_c1 - 4.25 z_c4_c2 + [ tauS_c2 * z_c4_c2 ] <= 95.4375
  SyncA_c4_c1_c3: 6.0 o_4 + 100.0 x_c4_c1 - tauD_c1 - 8.005 z_c4_c3 + [ tauS_c3 * z_c4_c3 ] <= 95.4375
  SyncA_c4_c1_c5: 6.0 o_4 + 100.0 x_c4_c1 - tauD_c1 - 7.505 z_c4_c5 + [ tauS_c5 * z_c4_c5 ] <= 95.4375
  SyncA_c4_c1_dN: 6.0 o_4 + 100.0 x_c4_c1 - tauD_c1 - 0.9025 z_c4_dN + [ tauS_dN * z_c4_dN ] <= 95.4375
  SyncA_c4_c2_c1: 6.0 o_4 + 100.0 x_c4_c2 - tauD_c2 - 4.5625 z_c4_c1 + [ tauS_c1 * z_c4_c1 ] <= 95.75
  SyncA_c4_c2_c2: 6.0 o_4 + 100.0 x_c4_c2 - tauD_c2 - 4.25 z_c4_c2 + [ tauS_c2 * z_c4_c2 ] <= 95.75
  SyncA_c4_c2_c3: 6.0 o_4 + 100.0 x_c4_c2 - tauD_c2 - 8.005 z_c4_c3 + [ tauS_c3 * z_c4_c3 ] <= 95.75
  SyncA_c4_c2_c5: 6.0 o_4 + 100.0 x_c4_c2 - tauD_c2 - 7.505 z_c4_c5 + [ tauS_c5 * z_c4_c5 ] <= 95.75
  SyncA_c4_c2_dN: 6.0 o_4 + 100.0 x_c4_c2 - tauD_c2 - 0.9025 z_c4_dN + [ tauS_dN * z_c4_dN ] <= 95.75
  SyncA_c4_c3_c1: 6.0 o_4 + 100.0 x_c4_c3 - tauD_c3 - 4.5625 z_c4_c1 + [ tauS_c1 * z_c4_c1 ] <= 91.995
  SyncA_c4_c3_c2: 6.0 o_4 + 100.0 x_c4_c3 - tauD_c3 - 4.25 z_c4_c2 + [ tauS_c2 * z_c4_c2 ] <= 91.995
  SyncA_c4_c3_c3: 6.0 o_4 + 100.0 x_c4_c3 - tauD_c3 - 8.005 z_c4_c3 + [ tauS_c3 * z_c4_c3 ] <= 91.995
  SyncA_c4_c3_c5: 6.0 o_4 + 100.0 x_c4_c3 - tauD_c3 - 7.505 z_c4_c5 + [ tauS_c5 * z_c4_c5 ] <= 91.995
  SyncA_c4_c3_dN: 6.0 o_4 + 100.0 x_c4_c3 - tauD_c3 - 0.9025 z_c4_dN + [ tauS_dN * z_c4_dN ] <= 91.995
  SyncA_c4_c5_c1: 6.0 o_4 + 100.0 x_c4_c5 - tauD_c5 - 4.5625 z_c4_c1 + [ tauS_c1 * z_c4_c1 ] <= 92.495
  SyncA_c4_c5_c2: 6.0 o_4 + 100.0 x_c4_c5 - tauD_c5 - 4.25 z_c4_c2 + [ tauS_c2 * z_c4_c2 ] <= 92.495
  SyncA_c4_c5_c3: 6.0 o_4 + 100.0 x_c4_c5 - tauD_c5 - 8.005 z_c4_c3 + [ tauS_c3 * z_c4_c3 ] <= 92.495
  SyncA_c4_c5_c5: 6.0 o_4 + 100.0 x_c4_c5 - tauD_c5 - 7.505 z_c4_c5 + [ tauS_c5 * z_c4_c5 ] <= 92.495
  SyncA_c4_c5_dN: 6.0 o_4 + 100.0 x_c4_c5 - tauD_c5 - 0.9025 z_c4_dN + [ tauS_dN * z_c4_dN ] <= 92.495
  SyncA_c4_dN_c1: 6.0 o_4 + 100.0 x_c4_dN - tauD_dN - 4.5625 z_c4_c1 + [ tauS_c1 * z_c4_c1 ] <= 99.0975
  SyncA_c4_dN_c2: 6.0 o_4 + 100.0 x_c4_dN - tauD_dN - 4.25 z_c4_c2 + [ tauS_c2 * z_c4_c2 ] <= 99.0975
  SyncA_c4_dN_c3: 6.0 o_4 + 100.0 x_c4_dN - tauD_dN - 8.005 z_c4_c3 + [ tauS_c3 * z_c4_c3 ] <= 99.0975
  SyncA_c4_dN_c5: 6.0 o_4 + 100.0 x_c4_dN - tauD_dN - 7.505 z_c4_c5 + [ tauS_c5 * z_c4_c5 ] <= 99.0975
  SyncA_c4_dN_dN: 6.0 o_4 + 100.0 x_c4_dN - tauD_dN - 0.9025 z_c4_dN + [ tauS_dN * z_c4_dN ] <= 99.0975
  SyncA_c5_c1_c1: 4.0 o_5 + 100.0 x_c5_c1 - tauD_c1 - 3.1625 z_c5_c1 + [ tauS_c1 * z_c5_c1 ] <= 96.8375
  SyncA_c5_c1_c2: 4.0 o_5 + 100.0 x_c5_c1 - tauD_c1 - 8.7475 z_c5_c2 + [ tauS_c2 * z_c5_c2 ] <= 96.8375
  SyncA_c5_c1_c3: 4.0 o_5 + 100.0 x_c5_c1 - tauD_c1 - 5.3975 z_c5_c3 + [ tauS_c3 * z_c5_c3 ] <= 96.8375
  SyncA_c5_c1_c4: 4.0 o_5 + 100.0 x_c5_c1 - tauD_c1 - 7.505 z_c5_c4 + [ tauS_c4 * z_c5_c4 ] <= 96.8375
  SyncA_c5_c1_dN: 4.0 o_5 + 100.0 x_c5_c1 - tauD_c1 - 7.0175 z_c5_dN + [ tauS_dN * z_c5_dN ] <= 96.8375
  SyncA_c5_c2_c1: 4.0 o_5 + 100.0 x_c5_c2 - tauD_c2 - 3.1625 z_c5_c1 + [ tauS_c1 * z_c5_c1 ] <= 91.2525
  SyncA_c5_c2_c2: 4.0 o_5 + 100.0 x_c5_c2 - tauD_c2 - 8.7475 z_c5_c2 + [ tauS_c2 * z_c5_c2 ] <= 91.2525
  SyncA_c5_c2_c3: 4.0 o_5 + 100.0 x_c5_c2 - tauD_c2 - 5.3975 z_c5_c3 + [ tauS_c3 * z_c5_c3 ] <= 91.2525
  SyncA_c5_c2_c4: 4.0 o_5 + 100.0 x_c5_c2 - tauD_c2 - 7.505 z_c5_c4 + [ tauS_c4 * z_c5_c4 ] <= 91.2525
  SyncA_c5_c2_dN: 4.0 o_5 + 100.0 x_c5_c2 - tauD_c2 - 7.0175 z_c5_dN + [ tauS_dN * z_c5_dN ] <= 91.2525
  SyncA_c5_c3_c1: 4.0 o_5 + 100.0 x_c5_c3 - tauD_c3 - 3.1625 z_c5_c1 + [ tauS_c1 * z_c5_c1 ] <= 94.6025
  SyncA_c5_c3_c2: 4.0 o_5 + 100.0 x_c5_c3 - tauD_c3 - 8.7475 z_c5_c2 + [ tauS_c2 * z_c5_c2 ] <= 94.6025
  SyncA_c5_c3_c3: 4.0 o_5 + 100.0 x_c5_c3 - tauD_c3 - 5.3975 z_c5_c3 + [ tauS_c3 * z_c5_c3 ] <= 94.6025
  SyncA_c5_c3_c4: 4.0 o_5 + 100.0 x_c5_c3 - tauD_c3 - 7.505 z_c5_c4 + [ tauS_c4 * z_c5_c4 ] <= 94.6025
  SyncA_c5_c3_dN: 4.0 o_5 + 100.0 x_c5_c3 - tauD_c3 - 7.0175 z_c5_dN + [ tauS_dN * z_c5_dN ] <= 94.6025
  SyncA_c5_c4_c1: 4.0 o_5 + 100.0 x_c5_c4 - tauD_c4 - 3.1625 z_c5_c1 + [ tauS_c1 * z_c5_c1 ] <= 92.495
  SyncA_c5_c4_c2: 4.0 o_5 + 100.0 x_c5_c4 - tauD_c4 - 8.7475 z_c5_c2 + [ tauS_c2 * z_c5_c2 ] <= 92.495
  SyncA_c5_c4_c3: 4.0 o_5 + 100.0 x_c5_c4 - tauD_c4 - 5.3975 z_c5_c3 + [ tauS_c3 * z_c5_c3 ] <= 92.495
  SyncA_c5_c4_c4: 4.0 o_5 + 100.0 x_c5_c4 - tauD_c4 - 7.505 z_c5_c4 + [ tauS_c4 * z_c5_c4 ] <= 92.495
  SyncA_c5_c4_dN: 4.0 o_5 + 100.0 x_c5_c4 - tauD_c4 - 7.0175 z_c5_dN + [ tauS_dN * z_c5_dN ] <= 92.495
  SyncA_c5_dN_c1: 4.0 o_5 + 100.0 x_c5_dN - tauD_dN - 3.1625 z_c5_c1 + [ tauS_c1 * z_c5_c1 ] <= 92.9825
  SyncA_c5_dN_c2: 4.0 o_5 + 100.0 x_c5_dN - tauD_dN - 8.7475 z_c5_c2 + [ tauS_c2 * z_c5_c2 ] <= 92.9825
  SyncA_c5_dN_c3: 4.0 o_5 + 100.0 x_c5_dN - tauD_dN - 5.3975 z_c5_c3 + [ tauS_c3 * z_c5_c3 ] <= 92.9825
  SyncA_c5_dN_c4: 4.0 o_5 + 100.0 x_c5_dN - tauD_dN - 7.505 z_c5_c4 + [ tauS_c4 * z_c5_c4 ] <= 92.9825
  SyncA_c5_dN_dN: 4.0 o_5 + 100.0 x_c5_dN - tauD_dN - 7.0175 z_c5_dN + [ tauS_dN * z_c5_dN ] <= 92.9825
  SVFirst_c1_c2: tauS_c2 - tauD_c1 + 8.0 o_1 - 100.0 z_c1_c2 >= -78.3
  SVFirst_c1_c3: tauS_c3 - tauD_c1 + 8.0 o_1 - 100.0 z_c1_c3 >= -79.405
  SVFirst_c1_c4: tauS_c4 - tauD_c1 + 8.0 o_1 - 100.0 z_c1_c4 >= -79.4375
  SVFirst_c1_c5: tauS_c5 - tauD_c1 + 8.0 o_1 - 100.0 z_c1_c5 >= -80.8375
  SVFirst_c1_dN:  tauS_dN - tauD_c1 + 8.0 o_1 - 100.0 z_c1_dN >= -79.72749999999999
  SVFirst_c2_c1: tauS_c1 - tauD_c2 + 5.0 o_2 - 100.0 z_c2_c1 >= -81.3
  SVFirst_c2_c3: tauS_c3 - tauD_c2 + 5.0 o_2 - 100.0 z_c2_c3 >= -80.705
  SVFirst_c2_c4: tauS_c4 - tauD_c2 + 5.0 o_2 - 100.0 z_c2_c4 >= -82.75
  SVFirst_c2_c5: tauS_c5 - tauD_c2 + 5.0 o_2 - 100.0 z_c2_c5 >= -78.2525
  SVFirst_c2_dN:  tauS_dN - tauD_c2 + 5.0 o_2 - 100.0 z_c2_dN >= -81.975
  SVFirst_c3_c1: tauS_c1 - tauD_c3 + 8.0 o_3 - 100.0 z_c3_c1 >= -79.405
  SVFirst_c3_c2: tauS_c2 - tauD_c3 + 8.0 o_3 - 100.0 z_c3_c2 >= -77.705
  SVFirst_c3_c4: tauS_c4 - tauD_c3 + 8.0 o_3 - 100.0 z_c3_c4 >= -75.995
  SVFirst_c3_c5: tauS_c5 - tauD_c3 + 8.0 o_3 - 100.0 z_c3_c5 >= -78.60249999999999
  SVFirst_c3_dN:  tauS_dN - tauD_c3 + 8.0 o_3 - 100.0 z_c3_dN >= -75.8675
  SVFirst_c4_c1: tauS_c1 - tauD_c4 + 6.0 o_4 - 100.0 z_c4_c1 >= -81.4375
  SVFirst_c4_c2: tauS_c2 - tauD_c4 + 6.0 o_4 - 100.0 z_c4_c2 >= -81.75
  SVFirst_c4_c3: tauS_c3 - tauD_c4 + 6.0 o_4 - 100.0 z_c4_c3 >= -77.995
  SVFirst_c4_c5: tauS_c5 - tauD_c4 + 6.0 o_4 - 100.0 z_c4_c5 >= -78.495
  SVFirst_c4_dN:  tauS_dN - tauD_c4 + 6.0 o_4 - 100.0 z_c4_dN >= -85.0975
  SVFirst_c5_c1: tauS_c1 - tauD_c5 + 4.0 o_5 - 100.0 z_c5_c1 >= -84.8375
  SVFirst_c5_c2: tauS_c2 - tauD_c5 + 4.0 o_5 - 100.0 z_c5_c2 >= -79.2525
  SVFirst_c5_c3: tauS_c3 - tauD_c5 + 4.0 o_5 - 100.0 z_c5_c3 >= -82.60249999999999
  SVFirst_c5_c4: tauS_c4 - tauD_c5 + 4.0 o_5 - 100.0 z_c5_c4 >= -80.495
  SVFirst_c5_dN:  tauS_dN - tauD_c5 + 4.0 o_5 - 100.0 z_c5_dN >= -80.9825
  Precedence_Swap_c1:  p_1 - z_d0_c1 - z_c2_c1 - z_c3_c1 - z_c4_c1 - z_c5_c1 = 0
  Precedence_Swap_c2:  p_2 - z_d0_c2 - z_c1_c2 - z_c3_c2 - z_c4_c2 - z_c5_c2 = 0
  Precedence_Swap_c3:  p_3 - z_d0_c3 - z_c1_c3 - z_c2_c3 - z_c4_c3 - z_c5_c3 = 0
  Precedence_Swap_c4:  p_4 - z_d0_c4 - z_c1_c4 - z_c2_c4 - z_c3_c4 - z_c5_c4 = 0
  Precedence_Swap_c5:  p_5 - z_d0_c5 - z_c1_c5 - z_c2_c5 - z_c3_c5 - z_c4_c5 = 0
  Order_c1:  o_1 - p_1 <= 0
  Order_c2:  o_2 - p_2 <= 0
  Order_c3:  o_3 - p_3 <= 0
  Order_c4:  o_4 - p_4 <= 0
  Order_c5:  o_5 - p_5 <= 0
  WorkingTimeS_c1:  tauS_c1 <= 87.7275
  WorkingTimeS_c2:  tauS_c2 <= 86.975
  WorkingTimeS_c3:  tauS_c3 <= 83.8675
  WorkingTimeS_c4:  tauS_c4 <= 91.0975
  WorkingTimeS_c5:  tauS_c5 <= 84.9825
  FreightDV_c1_c2:  k_c2 - kDash_c1 - 10.0 p_1 + 10.0 x_c1_c2 + [ kDash_c1 * p_1 - kDash_c1 * o_1 + 10.0 p_1 * o_1 ] <= 10.0
  FreightDV_c1_c3:  k_c3 - kDash_c1 - 10.0 p_1 + 10.0 x_c1_c3 + [ kDash_c1 * p_1 - kDash_c1 * o_1 + 10.0 p_1 * o_1 ] <= 10.0
  FreightDV_c1_c4:  k_c4 - kDash_c1 - 10.0 p_1 + 10.0 x_c1_c4 + [ kDash_c1 * p_1 - kDash_c1 * o_1 + 10.0 p_1 * o_1 ] <= 10.0
  FreightDV_c1_c5:  k_c5 - kDash_c1 - 10.0 p_1 + 10.0 x_c1_c5 + [ kDash_c1 * p_1 - kDash_c1 * o_1 + 10.0 p_1 * o_1 ] <= 10.0
  FreightDV_c1_dN:  k_dN - kDash_c1 - 10.0 p_1 + 10.0 x_c1_dN + [ kDash_c1 * p_1 - kDash_c1 * o_1 + 10.0 p_1 * o_1 ] <= 10.0
  FreightDV_c1:  kDash_c1 - k_c1 - 10.0 o_1 + [ k_c1 * o_1 ] <= -1.0
  FreightDV_c2_c1:  k_c1 - kDash_c2 - 10.0 p_2 + 10.0 x_c2_c1 + [ kDash_c2 * p_2 - kDash_c2 * o_2 + 10.0 p_2 * o_2 ] <= 10.0
  FreightDV_c2_c3:  k_c3 - kDash_c2 - 10.0 p_2 + 10.0 x_c2_c3 + [ kDash_c2 * p_2 - kDash_c2 * o_2 + 10.0 p_2 * o_2 ] <= 10.0
  FreightDV_c2_c4:  k_c4 - kDash_c2 - 10.0 p_2 + 10.0 x_c2_c4 + [ kDash_c2 * p_2 - kDash_c2 * o_2 + 10.0 p_2 * o_2 ] <= 10.0
  FreightDV_c2_c5:  k_c5 - kDash_c2 - 10.0 p_2 + 10.0 x_c2_c5 + [ kDash_c2 * p_2 - kDash_c2 * o_2 + 10.0 p_2 * o_2 ] <= 10.0
  FreightDV_c2_dN:  k_dN - kDash_c2 - 10.0 p_2 + 10.0 x_c2_dN + [ kDash_c2 * p_2 - kDash_c2 * o_2 + 10.0 p_2 * o_2 ] <= 10.0
  FreightDV_c2:  kDash_c2 - k_c2 - 10.0 o_2 + [ k_c2 * o_2 ] <= -5.0
  FreightDV_c3_c1:  k_c1 - kDash_c3 - 10.0 p_3 + 10.0 x_c3_c1 + [ kDash_c3 * p_3 - kDash_c3 * o_3 + 10.0 p_3 * o_3 ] <= 10.0
  FreightDV_c3_c2:  k_c2 - kDash_c3 - 10.0 p_3 + 10.0 x_c3_c2 + [ kDash_c3 * p_3 - kDash_c3 * o_3 + 10.0 p_3 * o_3 ] <= 10.0
  FreightDV_c3_c4:  k_c4 - kDash_c3 - 10.0 p_3 + 10.0 x_c3_c4 + [ kDash_c3 * p_3 - kDash_c3 * o_3 + 10.0 p_3 * o_3 ] <= 10.0
  FreightDV_c3_c5:  k_c5 - kDash_c3 - 10.0 p_3 + 10.0 x_c3_c5 + [ kDash_c3 * p_3 - kDash_c3 * o_3 + 10.0 p_3 * o_3 ] <= 10.0
  FreightDV_c3_dN:  k_dN - kDash_c3 - 10.0 p_3 + 10.0 x_c3_dN + [ kDash_c3 * p_3 - kDash_c3 * o_3 + 10.0 p_3 * o_3 ] <= 10.0
  FreightDV_c3:  kDash_c3 - k_c3 - 10.0 o_3 + [ k_c3 * o_3 ] <= -7.0
  FreightDV_c4_c1:  k_c1 - kDash_c4 - 10.0 p_4 + 10.0 x_c4_c1 + [ kDash_c4 * p_4 - kDash_c4 * o_4 + 10.0 p_4 * o_4 ] <= 10.0
  FreightDV_c4_c2:  k_c2 - kDash_c4 - 10.0 p_4 + 10.0 x_c4_c2 + [ kDash_c4 * p_4 - kDash_c4 * o_4 + 10.0 p_4 * o_4 ] <= 10.0
  FreightDV_c4_c3:  k_c3 - kDash_c4 - 10.0 p_4 + 10.0 x_c4_c3 + [ kDash_c4 * p_4 - kDash_c4 * o_4 + 10.0 p_4 * o_4 ] <= 10.0
  FreightDV_c4_c5:  k_c5 - kDash_c4 - 10.0 p_4 + 10.0 x_c4_c5 + [ kDash_c4 * p_4 - kDash_c4 * o_4 + 10.0 p_4 * o_4 ] <= 10.0
  FreightDV_c4_dN:  k_dN - kDash_c4 - 10.0 p_4 + 10.0 x_c4_dN + [ kDash_c4 * p_4 - kDash_c4 * o_4 + 10.0 p_4 * o_4 ] <= 10.0
  FreightDV_c4:  kDash_c4 - k_c4 - 10.0 o_4 + [ k_c4 * o_4 ] <= -7.0
  FreightDV_c5_c1:  k_c1 - kDash_c5 - 10.0 p_5 + 10.0 x_c5_c1 + [ kDash_c5 * p_5 - kDash_c5 * o_5 + 10.0 p_5 * o_5 ] <= 10.0
  FreightDV_c5_c2:  k_c2 - kDash_c5 - 10.0 p_5 + 10.0 x_c5_c2 + [ kDash_c5 * p_5 - kDash_c5 * o_5 + 10.0 p_5 * o_5 ] <= 10.0
  FreightDV_c5_c3:  k_c3 - kDash_c5 - 10.0 p_5 + 10.0 x_c5_c3 + [ kDash_c5 * p_5 - kDash_c5 * o_5 + 10.0 p_5 * o_5 ] <= 10.0
  FreightDV_c5_c4:  k_c4 - kDash_c5 - 10.0 p_5 + 10.0 x_c5_c4 + [ kDash_c5 * p_5 - kDash_c5 * o_5 + 10.0 p_5 * o_5 ] <= 10.0
  FreightDV_c5_dN:  k_dN - kDash_c5 - 10.0 p_5 + 10.0 x_c5_dN + [ kDash_c5 * p_5 - kDash_c5 * o_5 + 10.0 p_5 * o_5 ] <= 10.0
  FreightDV_c5:  kDash_c5 - k_c5 - 10.0 o_5 + [ k_c5 * o_5 ] <= -4.0
  FreightSV_c1_c2:  pi_c2 - pi_c1 - kDash_c1 + 20.0 z_c1_c2 + [ kDash_c1 * o_1 - k_c1 * o_1 ] <= 10.0
  FreightSV_c1_c3:  pi_c3 - pi_c1 - kDash_c1 + 20.0 z_c1_c3 + [ kDash_c1 * o_1 - k_c1 * o_1 ] <= 10.0
  FreightSV_c1_c4:  pi_c4 - pi_c1 - kDash_c1 + 20.0 z_c1_c4 + [ kDash_c1 * o_1 - k_c1 * o_1 ] <= 10.0
  FreightSV_c1_c5:  pi_c5 - pi_c1 - kDash_c1 + 20.0 z_c1_c5 + [ kDash_c1 * o_1 - k_c1 * o_1 ] <= 10.0
  FreightSV_c1_dN:  pi_dN - pi_c1 - kDash_c1 + 20.0 z_c1_dN + [ kDash_c1 * o_1 - k_c1 * o_1 ] <= 10.0
  FreightSV_c2_c1:  pi_c1 - pi_c2 - kDash_c2 + 20.0 z_c2_c1 + [ kDash_c2 * o_2 - k_c2 * o_2 ] <= 10.0
  FreightSV_c2_c3:  pi_c3 - pi_c2 - kDash_c2 + 20.0 z_c2_c3 + [ kDash_c2 * o_2 - k_c2 * o_2 ] <= 10.0
  FreightSV_c2_c4:  pi_c4 - pi_c2 - kDash_c2 + 20.0 z_c2_c4 + [ kDash_c2 * o_2 - k_c2 * o_2 ] <= 10.0
  FreightSV_c2_c5:  pi_c5 - pi_c2 - kDash_c2 + 20.0 z_c2_c5 + [ kDash_c2 * o_2 - k_c2 * o_2 ] <= 10.0
  FreightSV_c2_dN:  pi_dN - pi_c2 - kDash_c2 + 20.0 z_c2_dN + [ kDash_c2 * o_2 - k_c2 * o_2 ] <= 10.0
  FreightSV_c3_c1:  pi_c1 - pi_c3 - kDash_c3 + 20.0 z_c3_c1 + [ kDash_c3 * o_3 - k_c3 * o_3 ] <= 10.0
  FreightSV_c3_c2:  pi_c2 - pi_c3 - kDash_c3 + 20.0 z_c3_c2 + [ kDash_c3 * o_3 - k_c3 * o_3 ] <= 10.0
  FreightSV_c3_c4:  pi_c4 - pi_c3 - kDash_c3 + 20.0 z_c3_c4 + [ kDash_c3 * o_3 - k_c3 * o_3 ] <= 10.0
  FreightSV_c3_c5:  pi_c5 - pi_c3 - kDash_c3 + 20.0 z_c3_c5 + [ kDash_c3 * o_3 - k_c3 * o_3 ] <= 10.0
  FreightSV_c3_dN:  pi_dN - pi_c3 - kDash_c3 + 20.0 z_c3_dN + [ kDash_c3 * o_3 - k_c3 * o_3 ] <= 10.0
  FreightSV_c4_c1:  pi_c1 - pi_c4 - kDash_c4 + 20.0 z_c4_c1 + [ kDash_c4 * o_4 - k_c4 * o_4 ] <= 10.0
  FreightSV_c4_c2:  pi_c2 - pi_c4 - kDash_c4 + 20.0 z_c4_c2 + [ kDash_c4 * o_4 - k_c4 * o_4 ] <= 10.0
  FreightSV_c4_c3:  pi_c3 - pi_c4 - kDash_c4 + 20.0 z_c4_c3 + [ kDash_c4 * o_4 - k_c4 * o_4 ] <= 10.0
  FreightSV_c4_c5:  pi_c5 - pi_c4 - kDash_c4 + 20.0 z_c4_c5 + [ kDash_c4 * o_4 - k_c4 * o_4 ] <= 10.0
  FreightSV_c4_dN:  pi_dN - pi_c4 - kDash_c4 + 20.0 z_c4_dN + [ kDash_c4 * o_4 - k_c4 * o_4 ] <= 10.0
  FreightSV_c5_c1:  pi_c1 - pi_c5 - kDash_c5 + 20.0 z_c5_c1 + [ kDash_c5 * o_5 - k_c5 * o_5 ] <= 10.0
  FreightSV_c5_c2:  pi_c2 - pi_c5 - kDash_c5 + 20.0 z_c5_c2 + [ kDash_c5 * o_5 - k_c5 * o_5 ] <= 10.0
  FreightSV_c5_c3:  pi_c3 - pi_c5 - kDash_c5 + 20.0 z_c5_c3 + [ kDash_c5 * o_5 - k_c5 * o_5 ] <= 10.0
  FreightSV_c5_c4:  pi_c4 - pi_c5 - kDash_c5 + 20.0 z_c5_c4 + [ kDash_c5 * o_5 - k_c5 * o_5 ] <= 10.0
  FreightSV_c5_dN:  pi_dN - pi_c5 - kDash_c5 + 20.0 z_c5_dN + [ kDash_c5 * o_5 - k_c5 * o_5 ] <= 10.0
  FuelDV_d0_c1:  phi_c1 - phi_d0 + 13.1433 x_d0_c1 <= 12.0
  FuelDV_d0_c2:  phi_c2 - phi_d0 + 13.3447 x_d0_c2 <= 12.0
  FuelDV_d0_c3:  phi_c3 - phi_d0 + 14.1763 x_d0_c3 <= 12.0
  FuelDV_d0_c4:  phi_c4 - phi_d0 + 12.2415 x_d0_c4 <= 12.0
  FuelDV_d0_c5:  phi_c5 - phi_d0 + 13.8779 x_d0_c5 <= 12.0
  FuelDV_c1_c2:  phi_c2 - phi_c1 + 13.5253 x_c1_c2 <= 12.0
  FuelDV_c1_c3:  phi_c3 - phi_c1 + 13.2296 x_c1_c3 <= 12.0
  FuelDV_c1_c4:  phi_c4 - phi_c1 + 13.2209 x_c1_c4 <= 12.0
  FuelDV_c1_c5:  phi_c5 - phi_c1 + 12.8463 x_c1_c5 <= 12.0
  FuelDV_c1_dN:  phi_dN - phi_c1 + 13.1433 x_c1_dN <= 12.0
  FuelDV_c2_c1:  phi_c1 - phi_c2 + 13.5253 x_c2_c1 <= 12.0
  FuelDV_c2_c3:  phi_c3 - phi_c2 + 13.6845 x_c2_c3 <= 12.0
  FuelDV_c2_c4:  phi_c4 - phi_c2 + 13.1373 x_c2_c4 <= 12.0
  FuelDV_c2_c5:  phi_c5 - phi_c2 + 14.3408 x_c2_c5 <= 12.0
  FuelDV_c2_dN:  phi_dN - phi_c2 + 13.3447 x_c2_dN <= 12.0
  FuelDV_c3_c1:  phi_c1 - phi_c3 + 13.2296 x_c3_c1 <= 12.0
  FuelDV_c3_c2:  phi_c2 - phi_c3 + 13.6845 x_c3_c2 <= 12.0
  FuelDV_c3_c4:  phi_c4 - phi_c3 + 14.1421 x_c3_c4 <= 12.0
  FuelDV_c3_c5:  phi_c5 - phi_c3 + 13.4444 x_c3_c5 <= 12.0
  FuelDV_c3_dN:  phi_dN - phi_c3 + 14.1763 x_c3_dN <= 12.0
  FuelDV_c4_c1:  phi_c1 - phi_c4 + 13.2209 x_c4_c1 <= 12.0
  FuelDV_c4_c2:  phi_c2 - phi_c4 + 13.1373 x_c4_c2 <= 12.0
  FuelDV_c4_c3:  phi_c3 - phi_c4 + 14.1421 x_c4_c3 <= 12.0
  FuelDV_c4_c5:  phi_c5 - phi_c4 + 14.0083 x_c4_c5 <= 12.0
  FuelDV_c4_dN:  phi_dN - phi_c4 + 12.2415 x_c4_dN <= 12.0
  FuelDV_c5_c1:  phi_c1 - phi_c5 + 12.8463 x_c5_c1 <= 12.0
  FuelDV_c5_c2:  phi_c2 - phi_c5 + 14.3408 x_c5_c2 <= 12.0
  FuelDV_c5_c3:  phi_c3 - phi_c5 + 13.4444 x_c5_c3 <= 12.0
  FuelDV_c5_c4:  phi_c4 - phi_c5 + 14.0083 x_c5_c4 <= 12.0
  FuelDV_c5_dN:  phi_dN - phi_c5 + 13.8779 x_c5_dN <= 12.0
  WorkingTimeD_c1:  tauD_c1 + 8.0 p_1 <= 87.7275
  WorkingTimeD_c2:  tauD_c2 + 8.0 p_2 <= 89.975
  WorkingTimeD_c3:  tauD_c3 + 8.0 p_3 <= 83.8675
  WorkingTimeD_c4:  tauD_c4 + 8.0 p_4 <= 93.0975
  WorkingTimeD_c5:  tauD_c5 + 8.0 p_5 <= 88.9825
Bounds
0 <= kDash_c1 <= 10.0
0 <= kDash_c2 <= 10.0
0 <= kDash_c3 <= 10.0
0 <= kDash_c4 <= 10.0
0 <= kDash_c5 <= 10.0
0 <= kDash_dN <= 10.0
0 <= k_c1 <= 10.0
0 <= k_c2 <= 10.0
0 <= k_c3 <= 10.0
0 <= k_c4 <= 10.0
0 <= k_c5 <= 10.0
0 <= k_dN <= 10.0
0 <= phi_c1 <= 12.0
0 <= phi_c2 <= 12.0
0 <= phi_c3 <= 12.0
0 <= phi_c4 <= 12.0
0 <= phi_c5 <= 12.0
0 <= phi_d0 <= 12.0
0 <= phi_dN <= 12.0
0 <= pi_c1 <= 50.0
0 <= pi_c2 <= 50.0
0 <= pi_c3 <= 50.0
0 <= pi_c4 <= 50.0
0 <= pi_c5 <= 50.0
0 <= pi_dN <= 50.0
0 <= tauD_c1 <= 100.0
0 <= tauD_c2 <= 100.0
0 <= tauD_c3 <= 100.0
0 <= tauD_c4 <= 100.0
0 <= tauD_c5 <= 100.0
0 <= tauD_d0 <= 100.0
0 <= tauD_dN <= 100.0
0 <= tauS_c1 <= 100.0
0 <= tauS_c2 <= 100.0
0 <= tauS_c3 <= 100.0
0 <= tauS_c4 <= 100.0
0 <= tauS_c5 <= 100.0
0 <= tauS_d0 <= 100.0
0 <= tauS_dN <= 100.0
Generals
  kDash_c1
  kDash_c2
  kDash_c3
  kDash_c4
  kDash_c5
  kDash_dN
  k_c1
  k_c2
  k_c3
  k_c4
  k_c5
  k_dN
  phi_c1
  phi_c2
  phi_c3
  phi_c4
  phi_c5
  phi_d0
  phi_dN
  pi_c1
  pi_c2
  pi_c3
  pi_c4
  pi_c5
  pi_dN
  tauD_c1
  tauD_c2
  tauD_c3
  tauD_c4
  tauD_c5
  tauD_d0
  tauD_dN
  tauS_c1
  tauS_c2
  tauS_c3
  tauS_c4
  tauS_c5
  tauS_d0
  tauS_dN
Binary
  o_1
  o_2
  o_3
  o_4
  o_5
  p_1
  p_2
  p_3
  p_4
  p_5
  x_c1_c2
  x_c1_c3
  x_c1_c4
  x_c1_c5
  x_c1_dN
  x_c2_c1
  x_c2_c3
  x_c2_c4
  x_c2_c5
  x_c2_dN
  x_c3_c1
  x_c3_c2
  x_c3_c4
  x_c3_c5
  x_c3_dN
  x_c4_c1
  x_c4_c2
  x_c4_c3
  x_c4_c5
  x_c4_dN
  x_c5_c1
  x_c5_c2
  x_c5_c3
  x_c5_c4
  x_c5_dN
  x_d0_c1
  x_d0_c2
  x_d0_c3
  x_d0_c4
  x_d0_c5
  z_c1_c2
  z_c1_c3
  z_c1_c4
  z_c1_c5
  z_c1_dN
  z_c2_c1
  z_c2_c3
  z_c2_c4
  z_c2_c5
  z_c2_dN
  z_c3_c1
  z_c3_c2
  z_c3_c4
  z_c3_c5
  z_c3_dN
  z_c4_c1
  z_c4_c2
  z_c4_c3
  z_c4_c5
  z_c4_dN
  z_c5_c1
  z_c5_c2
  z_c5_c3
  z_c5_c4
  z_c5_dN
  z_d0_c1
  z_d0_c2
  z_d0_c3
  z_d0_c4
  z_d0_c5
End
